Set parameter TokenServer to value "hpc-licenses.hpcc.usc.edu"
Set parameter TimeLimit to value 3600
Gurobi Optimizer version 9.5.1 build v9.5.1rc2 (linux64)
Thread count: 20 physical cores, 20 logical processors, using up to 20 threads
Optimize a model with 6007 rows, 4529 columns and 24534 nonzeros
Model fingerprint: 0x4ac3e001
Variable types: 4506 continuous, 23 integer (23 binary)
Coefficient statistics:
  Matrix range     [1e+00, 1e+00]
  Objective range  [2e-03, 1e+00]
  Bounds range     [1e+00, 1e+00]
  RHS range        [1e+00, 5e+01]
Found heuristic solution: objective 255.9313429
Presolve removed 1514 rows and 1511 columns
Presolve time: 0.07s
Presolved: 4493 rows, 3018 columns, 21993 nonzeros
Variable types: 2998 continuous, 20 integer (20 binary)

Root relaxation: objective 2.604666e+02, 3158 iterations, 0.14 seconds (0.15 work units)

    Nodes    |    Current Node    |     Objective Bounds      |     Work
 Expl Unexpl |  Obj  Depth IntInf | Incumbent    BestBd   Gap | It/Node Time

     0     0  260.46663    0    3  255.93134  260.46663  1.77%     -    0s
     0     0  260.29025    0    3  255.93134  260.29025  1.70%     -    0s
     0     0  259.38351    0    3  255.93134  259.38351  1.35%     -    0s
     0     0  259.38351    0    3  255.93134  259.38351  1.35%     -    0s
     0     0  259.14541    0    3  255.93134  259.14541  1.26%     -    0s
     0     0  259.14541    0    3  255.93134  259.14541  1.26%     -    0s
H    0     0                     258.9150451  259.14541  0.09%     -    0s

Cutting planes:
  Gomory: 4
  MIR: 158
  Flow cover: 2
  RLT: 22

Explored 1 nodes (3729 simplex iterations) in 0.71 seconds (0.47 work units)
Thread count was 20 (of 20 available processors)

Solution count 2: 258.915 255.931 

Optimal solution found (tolerance 1.00e-04)
Best objective 2.589150450677e+02, best bound 2.589150450677e+02, gap 0.0000%



#########node  1
V1.9
#########node  2
0.05660377358490579,0.9433962264150942
#########node  3
1.0,0.0


Total Solving Time 1.0705852508544922
obj value 258.91504506772554
Policy Regret train (Sum) 1.515319924254638
Best Treatment Found train (%) 88.8
treatment classification acc train (%) 43.8
Policy Regret test (Sum) 145.29074060878332
Best Treatment Found test (%) 59.919999999999995
treatment classification acc test (%) 42.24
